p wcnf 153 230 231 
1 136 36 0 
1 1 -144 0 
1 -56 -8 0 
1 -73 17 0 
1 -71 -123 0 
1 -46 110 0 
1 -96 -4 0 
1 -57 115 0 
1 -41 97 0 
1 -93 104 0 
1 -12 56 0 
1 71 -30 0 
1 -93 107 0 
1 -28 -117 0 
1 61 11 0 
1 -50 109 0 
1 -21 37 0 
1 -27 126 0 
1 -136 94 0 
1 87 38 0 
1 94 143 0 
1 -43 -93 0 
1 100 59 0 
1 -82 97 0 
1 100 127 0 
1 48 -71 0 
1 96 57 0 
1 -51 -75 0 
1 -150 51 0 
1 -3 142 0 
1 -140 -85 0 
1 -146 -29 0 
1 18 51 0 
1 -142 -76 0 
1 -112 -116 0 
1 131 -8 0 
1 -52 -88 0 
1 -125 -48 0 
1 45 2 0 
1 144 6 0 
1 -11 -77 0 
1 -149 49 0 
1 76 135 0 
1 104 71 0 
1 -125 -14 0 
1 -132 85 0 
1 -75 140 0 
1 139 125 0 
1 -87 -15 0 
1 -135 -126 0 
1 44 -135 0 
1 -26 9 0 
1 -41 63 0 
1 129 -134 0 
1 -149 -97 0 
1 -30 40 0 
1 -65 -9 0 
1 -95 -98 0 
1 -76 -43 0 
1 -22 -69 0 
1 73 21 0 
1 23 57 0 
1 149 -115 0 
1 -133 58 0 
1 68 33 0 
1 129 -66 0 
1 7 -71 0 
1 99 -43 0 
1 49 150 0 
1 95 -44 0 
1 -92 98 0 
1 35 -98 0 
1 -143 -45 0 
1 -73 -124 0 
1 -137 3 0 
1 -38 17 0 
1 -58 26 0 
1 80 87 0 
1 -79 -45 0 
1 -17 40 0 
1 -129 105 0 
1 -72 6 0 
1 87 -128 0 
1 1 -139 0 
1 128 -25 0 
1 8 58 0 
1 -48 133 0 
1 88 20 0 
1 46 -13 0 
1 8 -37 0 
1 140 -135 0 
1 -150 -98 0 
1 -78 100 0 
1 -131 -11 0 
1 -126 37 0 
1 -84 -145 0 
1 -33 -3 0 
1 95 -64 0 
1 17 -32 0 
1 129 -111 0 
1 -78 142 0 
1 37 -42 0 
1 78 -15 0 
1 -62 -14 0 
1 39 19 0 
1 101 -9 0 
1 134 -38 0 
1 -87 30 0 
1 136 129 0 
1 -10 -144 0 
1 -3 58 0 
1 22 93 0 
1 3 -89 0 
1 -80 116 0 
1 -10 107 0 
1 91 -121 0 
1 -126 -123 0 
1 43 -39 0 
1 71 -120 0 
1 -54 3 0 
1 153 96 0 
1 10 145 0 
1 -18 153 0 
1 110 -80 0 
1 -24 116 0 
1 137 45 0 
1 24 -52 0 
1 22 -152 0 
1 -142 16 0 
1 116 55 0 
1 -95 -49 0 
1 141 -34 0 
1 -53 -87 0 
1 -63 -86 0 
1 -49 -138 0 
1 -141 104 0 
1 -82 117 0 
1 -112 -61 0 
1 -11 50 0 
1 -42 -114 0 
1 114 106 0 
1 141 -89 0 
1 -50 -66 0 
1 12 -23 0 
1 140 -109 0 
1 -97 -148 0 
1 -120 -153 0 
1 -116 -67 0 
1 -98 -111 0 
1 -62 105 0 
1 85 9 0 
1 -88 75 0 
1 -128 -124 0 
1 139 -12 0 
1 145 -131 0 
1 -62 -71 0 
1 -70 81 0 
1 18 109 0 
1 54 -96 0 
1 -15 -151 0 
1 -75 -8 0 
1 133 15 0 
1 120 -141 0 
1 85 -25 0 
1 -42 -153 0 
1 -30 -134 0 
1 97 96 0 
1 104 22 0 
1 -149 -129 0 
1 137 -4 0 
1 84 -27 0 
1 111 110 0 
1 118 134 0 
1 143 -72 0 
1 109 66 0 
1 -75 -109 0 
1 -99 -138 0 
1 41 149 0 
1 133 -31 0 
1 119 -18 0 
1 87 -86 0 
1 -2 -19 0 
1 96 29 0 
1 119 -24 0 
1 -118 153 0 
1 104 -7 0 
1 -108 40 0 
1 81 -92 0 
1 86 -137 0 
1 68 -112 0 
1 71 -134 0 
1 74 -137 0 
1 -21 113 0 
1 -16 42 0 
1 117 -80 0 
1 89 56 0 
1 137 87 0 
1 57 12 0 
1 95 -35 0 
1 -23 139 0 
1 -143 -17 0 
1 -41 94 0 
1 110 -23 0 
1 150 11 0 
1 -93 113 0 
1 -52 121 0 
1 -13 -150 0 
1 37 -55 0 
1 64 -81 0 
1 -62 -61 0 
1 -131 114 0 
1 9 -81 0 
1 -82 126 0 
1 30 48 0 
1 101 -146 0 
1 105 -38 0 
1 -43 -142 0 
1 31 142 0 
1 141 -78 0 
1 -13 126 0 
1 -130 -26 0 
1 11 -13 0 
1 34 99 0 
1 41 -67 0 
1 -110 11 0 
1 123 66 0 
1 130 111 0 
1 26 34 0 
1 -139 34 0 
1 109 -93 0 
